c SAT Generator for power-law distributed variable frequencies
c -g u -v 20 -c 91 -k 3 -p 2.750000 -b 3.200000 -f /home/schmidt/Devel/ni-kop-sat/data/ensemble/ruf20-91/ruf20-91-979 -u 1 -U 1 -s 4092516617
p cnf 20 91
-2 8 16 0
-3 -17 -20 0
3 5 11 0
2 3 -11 0
4 -5 16 0
3 8 -17 0
8 14 -15 0
2 3 -10 0
-2 -5 17 0
2 6 17 0
-12 18 19 0
8 -10 -15 0
1 -14 15 0
-1 4 9 0
-4 -14 -17 0
-9 14 18 0
2 -8 9 0
2 3 -18 0
13 -15 -17 0
6 -11 -19 0
-3 -4 16 0
6 7 9 0
12 16 -19 0
-2 -4 15 0
-2 -7 -9 0
-2 -5 -11 0
-16 19 -20 0
-3 12 16 0
-9 12 -18 0
10 -14 18 0
2 -7 17 0
-2 7 -14 0
1 6 -14 0
7 8 -20 0
9 -11 -12 0
-5 -13 14 0
2 -5 -19 0
7 -15 -20 0
3 -8 9 0
2 11 18 0
2 11 15 0
-5 -6 18 0
-6 8 -20 0
-2 -13 20 0
-2 -15 17 0
-7 8 10 0
7 10 13 0
-5 -6 -10 0
-3 -10 12 0
12 13 16 0
-9 -17 -19 0
-3 4 19 0
8 -14 17 0
7 11 -18 0
-12 -15 17 0
1 4 10 0
-5 -13 -15 0
1 6 9 0
-12 19 20 0
-8 -16 20 0
-3 -17 18 0
-1 -5 20 0
-4 -9 -14 0
6 10 14 0
-3 6 -10 0
7 -10 19 0
1 2 11 0
-1 7 18 0
8 15 -16 0
3 -12 14 0
4 -10 -14 0
-3 6 16 0
-8 -17 19 0
-4 11 -18 0
-6 18 19 0
1 -14 16 0
-4 6 11 0
3 -4 9 0
2 -10 17 0
6 -8 -10 0
-6 9 -20 0
-9 10 -17 0
-15 17 19 0
6 -8 -15 0
-1 5 -10 0
-1 3 -19 0
-8 10 -14 0
3 14 -20 0
-2 -9 -18 0
-3 -6 -8 0
9 -11 -18 0
